NAME: tsp5_25
COMMENT: 5-tsp problem (Padberg/Rinaldi)
TYPE: TSP
DIMENSION: 5
EDGE_WEIGHT_TYPE : EUC_2D
NODE_COORD_SECTION
1.00 21.38 29.63
2.00 37.64 31.46
3.00 11.36 12.98
4.00 24.90 26.47
5.00 22.57 21.15
